c This Formular is generated by mcnf
c
c    horn? no 
c    forced? no 
c    mixed sat? no 
c    clause length = 3 
c
p cnf 20  91 
 18 16 8 0
20 -18 -3 0
11 -1 8 0
7 -10 16 0
-11 9 -1 0
-3 -12 -1 0
-14 16 -11 0
19 14 -5 0
-17 16 -7 0
-5 15 -16 0
-3 13 -12 0
-6 19 -2 0
15 -19 17 0
18 -16 4 0
-20 -16 4 0
-6 -19 -17 0
8 -17 19 0
-2 8 3 0
-7 18 -10 0
10 5 2 0
11 19 3 0
%
0

45 40 23 9 88 43 67 67 40 70 93 45 95 41 20 40 71 90 7 18
